Cost: 409
0-4-13-41-40-42-44-15-37-17-0
0-32-11-38-9-30-39-10-5-12-0
0-2-16-29-20-35-36-3-28-31-1-0
0-27-7-43-24-14-6-0
Cost: 409
0-32-11-38-9-30-39-10-5-12-0
0-27-7-43-24-14-6-0
0-17-37-15-44-42-40-41-13-4-0
0-1-31-28-3-36-35-20-29-16-2-0
Cost: 409
0-4-13-41-40-42-44-15-37-17-0
0-32-11-38-9-30-39-10-5-12-0
0-2-16-29-20-35-36-3-28-31-1-0
0-27-7-43-24-14-6-0
Cost: 409
0-4-13-41-40-42-44-15-37-17-0
0-6-14-24-43-7-27-0
0-1-31-28-3-36-35-20-29-16-2-0
0-32-11-38-9-30-39-10-5-12-0
Cost: 409
0-27-7-43-24-14-6-0
0-32-11-38-9-30-39-10-5-12-0
0-4-13-41-40-42-44-15-37-17-0
0-2-16-29-20-35-36-3-28-31-1-0
Cost: 409
0-1-31-28-3-36-35-20-29-16-2-0
0-32-11-38-9-30-39-10-5-12-0
0-4-13-41-40-42-44-15-37-17-0
0-6-14-24-43-7-27-0
Cost: 409
0-6-14-24-43-7-27-0
0-4-13-41-40-42-44-15-37-17-0
0-32-11-38-9-30-39-10-5-12-0
0-1-31-28-3-36-35-20-29-16-2-0
Cost: 409
0-6-14-24-43-7-27-0
0-4-13-41-40-42-44-15-37-17-0
0-32-11-38-9-30-39-10-5-12-0
0-1-31-28-3-36-35-20-29-16-2-0
Cost: 409
0-6-14-24-43-7-27-0
0-4-13-41-40-42-44-15-37-17-0
0-32-11-38-9-30-39-10-5-12-0
0-1-31-28-3-36-35-20-29-16-2-0
Cost: 409
0-6-14-24-43-7-27-0
0-4-13-41-40-42-44-15-37-17-0
0-32-11-38-9-30-39-10-5-12-0
0-1-31-28-3-36-35-20-29-16-2-0
Cost: 409
0-27-7-43-24-14-6-0
0-32-11-38-9-30-39-10-5-12-0
0-4-13-41-40-42-44-15-37-17-0
0-1-31-28-3-36-35-20-29-16-2-0
Cost: 409
0-27-7-43-24-14-6-0
0-32-11-38-9-30-39-10-5-12-0
0-4-13-41-40-42-44-15-37-17-0
0-1-31-28-3-36-35-20-29-16-2-0
Cost: 409
0-27-7-43-24-14-6-0
0-32-11-38-9-30-39-10-5-12-0
0-4-13-41-40-42-44-15-37-17-0
0-1-31-28-3-36-35-20-29-16-2-0
Cost: 409
0-27-7-43-24-14-6-0
0-32-11-38-9-30-39-10-5-12-0
0-4-13-41-40-42-44-15-37-17-0
0-1-31-28-3-36-35-20-29-16-2-0
Cost: 409
0-27-7-43-24-14-6-0
0-32-11-38-9-30-39-10-5-12-0
0-4-13-41-40-42-44-15-37-17-0
0-1-31-28-3-36-35-20-29-16-2-0
Cost: 409
0-27-7-43-24-14-6-0
0-32-11-38-9-30-39-10-5-12-0
0-4-13-41-40-42-44-15-37-17-0
0-1-31-28-3-36-35-20-29-16-2-0
Cost: 409
0-27-7-43-24-14-6-0
0-32-11-38-9-30-39-10-5-12-0
0-4-13-41-40-42-44-15-37-17-0
0-1-31-28-3-36-35-20-29-16-2-0
Cost: 409
0-27-7-43-24-14-6-0
0-32-11-38-9-30-39-10-5-12-0
0-4-13-41-40-42-44-15-37-17-0
0-1-31-28-3-36-35-20-29-16-2-0
Cost: 409
0-27-7-43-24-14-6-0
0-32-11-38-9-30-39-10-5-12-0
0-4-13-41-40-42-44-15-37-17-0
0-1-31-28-3-36-35-20-29-16-2-0
Cost: 409
0-27-7-43-24-14-6-0
0-32-11-38-9-30-39-10-5-12-0
0-4-13-41-40-42-44-15-37-17-0
0-1-31-28-3-36-35-20-29-16-2-0
Cost: 409
0-27-7-43-24-14-6-0
0-32-11-38-9-30-39-10-5-12-0
0-4-13-41-40-42-44-15-37-17-0
0-1-31-28-3-36-35-20-29-16-2-0
Cost: 409
0-27-7-43-24-14-6-0
0-32-11-38-9-30-39-10-5-12-0
0-4-13-41-40-42-44-15-37-17-0
0-1-31-28-3-36-35-20-29-16-2-0
Cost: 409
0-12-5-10-39-30-9-38-11-32-0
0-6-14-24-43-7-27-0
0-17-37-15-44-42-40-41-13-4-0
0-2-16-29-20-35-36-3-28-31-1-0
Cost: 409
0-27-7-43-24-14-6-0
0-32-11-38-9-30-39-10-5-12-0
0-4-13-41-40-42-44-15-37-17-0
0-1-31-28-3-36-35-20-29-16-2-0
Cost: 409
0-27-7-43-24-14-6-0
0-32-11-38-9-30-39-10-5-12-0
0-4-13-41-40-42-44-15-37-17-0
0-1-31-28-3-36-35-20-29-16-2-0
Cost: 409
0-27-7-43-24-14-6-0
0-32-11-38-9-30-39-10-5-12-0
0-4-13-41-40-42-44-15-37-17-0
0-1-31-28-3-36-35-20-29-16-2-0
Cost: 409
0-32-11-38-9-30-39-10-5-12-0
0-17-37-15-44-42-40-41-13-4-0
0-2-16-29-20-35-36-3-28-31-1-0
0-6-14-24-43-7-27-0
Cost: 409
0-27-7-43-24-14-6-0
0-12-5-10-39-30-9-38-11-32-0
0-2-16-29-20-35-36-3-28-31-1-0
0-4-13-41-40-42-44-15-37-17-0
Cost: 409
0-1-31-28-3-36-35-20-29-16-2-0
0-32-11-38-9-30-39-10-5-12-0
0-17-37-15-44-42-40-41-13-4-0
0-6-14-24-43-7-27-0
Cost: 409
0-4-13-41-40-42-44-15-37-17-0
0-1-31-28-3-36-35-20-29-16-2-0
0-12-5-10-39-30-9-38-11-32-0
0-27-7-43-24-14-6-0
Cost: 409
0-6-14-24-43-7-27-0
0-1-31-28-3-36-35-20-29-16-2-0
0-12-5-10-39-30-9-38-11-32-0
0-4-13-41-40-42-44-15-37-17-0
